19
18
16 10 11 15 5
4 6 11 13
6 13 8 18 10 14 3 12 15 4 17 7 0 9
1 18 12 15
12 1 4 6 10 15 11 5 0
12 5
2 4 15 6 14 12 3 18 10 1 13 8 5 0 16 17 11
18 0 10 11 9 3 7 16 2 17 8 4
2 1 0 10 17 8 15 5 18 12 9 3 16
16 4 13 14 5 3 8 12 2 7
10 12 11 16 15 7 2
7 8 12 5 3 11 17 10 18 6 2 14
7 3
9 11
10 12 7 3 2 17 5 9 16 14 18 1 13 15 4
8 9 18 12 10 15 6
3 8
13 5 18 11 15 3 0 1 16 6 4 2 17 9 10 7 8
